38 30
7 526
14 433
1 847
25 558
12 603
17 745
23 351
23 118
4 400
9 183
12 207
21 278
12 536
20 858
23 848
13 747
6 49
2 466
29 480
24 358
26 914
11 700
13 42
19 426
5 242
9 92
11 117
9 709
29 21
29 157
20 194
1 404
17 55
16 605
26 54
28 640
10 658
2 960
